%chk=MTN_PBE0_-0.20.chk
%mem=60GB
%nprocshared=12
#p gen 6d pbe1pbe

start preoptimized

0 2
 O                 -3.75198200    0.20224900    0.89170100
 N                 -2.61193100    0.03606900    0.37422100
 C                 -2.16183300   -1.26782900   -0.15823200
 C                 -0.87908300   -0.85179200   -0.81593900
 C                 -0.60480400    0.44797400   -0.65718800
 C                  0.60544500    1.12507600   -1.19868800
 S                  1.94286700    1.44216100    0.03328500
 C                 -1.69310600    1.16543500    0.11304100
 C                 -1.23933600    1.76311000    1.44831100
 C                 -2.42069900    2.22125400   -0.72361400
 C                 -3.20530100   -1.81074400   -1.13768000
 C                 -1.92944200   -2.25526400    0.98993100
 H                 -0.23743300   -1.56167400   -1.33121300
 H                  1.06208900    0.53894900   -2.00234200
 H                  0.38804800    2.12839500   -1.58336800
 H                 -0.67381500    1.03374000    2.03691900
 H                 -0.60698300    2.64326500    1.29276100
 H                 -2.12562800    2.06839100    2.01532200
 H                 -3.31499200    2.54773500   -0.18564600
 H                 -1.78088500    3.09493000   -0.89186900
 H                 -2.72539800    1.81346800   -1.69358600
 H                 -3.35588500   -1.12075800   -1.97276400
 H                 -2.88578400   -2.77813300   -1.53577600
 H                 -4.15936900   -1.94084800   -0.61523800
 H                 -2.86255100   -2.39781400    1.54617000
 H                 -1.60237700   -3.22421300    0.59876800
 H                 -1.16020900   -1.88265000    1.67559900
 S                  2.75812300   -0.53418800    0.10957600
 O                  2.33563200   -1.21249000    1.35242400
 O                  2.50683900   -1.18176200   -1.20425900
 C                  4.51008800   -0.17058000    0.24654600
 H                  4.66095200    0.44621800    1.13348700
 H                  4.99801300   -1.14198700    0.36230600
 H                  4.83039800    0.33311400   -0.66669500

@/home/malgo/Basis_sets/n07d_pbe0.gbs

