%chk=MTN_PBE0_-0.24.chk
%mem=60GB
%nprocshared=12
#p gen 6d pbe1pbe

start preoptimized

0 2
 O                 -3.75958200    0.20544900    0.87770100
 N                 -2.60913100    0.03526900    0.37982100
 C                 -2.16103300   -1.26782900   -0.15703200
 C                 -0.88068300   -0.85059200   -0.81913900
 C                 -0.60560400    0.44877400   -0.65798800
 C                  0.60504500    1.12547600   -1.19908800
 S                  1.94246700    1.44136100    0.03328500
 C                 -1.69230600    1.16543500    0.11504100
 C                 -1.23533600    1.76471000    1.44871100
 C                 -2.42389900    2.21965400   -0.72001400
 C                 -3.21010100   -1.80914400   -1.13168000
 C                 -1.92144200   -2.25766400    0.98793100
 H                 -0.24023300   -1.56007400   -1.33641300
 H                  1.06168900    0.53934900   -2.00314200
 H                  0.38844800    2.12919500   -1.58336800
 H                 -0.66701500    1.03654000    2.03651900
 H                 -0.60458300    2.64566500    1.29116100
 H                 -2.12042800    2.06959100    2.01812200
 H                 -3.31659200    2.54533500   -0.17924600
 H                 -1.78528500    3.09373000   -0.89106900
 H                 -2.73139800    1.81066800   -1.68878600
 H                 -3.36548500   -1.11795800   -1.96476400
 H                 -2.89298400   -2.77573300   -1.53297600
 H                 -4.16136900   -1.93964800   -0.60363800
 H                 -2.85135100   -2.40301400    1.54937000
 H                 -1.59517700   -3.22541300    0.59316800
 H                 -1.14860900   -1.88545000    1.67039900
 S                  2.75852300   -0.53458800    0.10997600
 O                  2.33643200   -1.21289000    1.35282400
 O                  2.50763900   -1.18296200   -1.20385900
 C                  4.51008800   -0.16938000    0.24734600
 H                  4.66015200    0.44781800    1.13388700
 H                  4.99881300   -1.14038700    0.36350600
 H                  4.83039800    0.33391400   -0.66629500

@/home/malgo/Basis_sets/n07d_pbe0.gbs

