%chk=MTN_PBE0_-0.60.chk
%mem=60GB
%nprocshared=12
#p gen 6d pbe1pbe

start preoptimized

0 2
 O                 -3.82798200    0.23424900    0.75170100
 N                 -2.58393100    0.02806900    0.43022100
 C                 -2.15383300   -1.26782900   -0.14623200
 C                 -0.89508300   -0.83979200   -0.84793900
 C                 -0.61280400    0.45597400   -0.66518800
 C                  0.60144500    1.12907600   -1.20268800
 S                  1.93886700    1.43416100    0.03328500
 C                 -1.68510600    1.16543500    0.13304100
 C                 -1.19933600    1.77911000    1.45231100
 C                 -2.45269900    2.20525400   -0.68761400
 C                 -3.25330100   -1.79474400   -1.07768000
 C                 -1.84944200   -2.27926400    0.96993100
 H                 -0.26543300   -1.54567400   -1.38321300
 H                  1.05808900    0.54294900   -2.01034200
 H                  0.39204800    2.13639500   -1.58336800
 H                 -0.60581500    1.06174000    2.03291900
 H                 -0.58298300    2.66726500    1.27676100
 H                 -2.07362800    2.08039100    2.04332200
 H                 -3.33099200    2.52373500   -0.12164600
 H                 -1.82488500    3.08293000   -0.88386900
 H                 -2.78539800    1.78546800   -1.64558600
 H                 -3.45188500   -1.09275800   -1.89276400
 H                 -2.95778400   -2.75413300   -1.50777600
 H                 -4.17936900   -1.92884800   -0.49923800
 H                 -2.75055100   -2.44981400    1.57817000
 H                 -1.53037700   -3.23621300    0.54276800
 H                 -1.04420900   -1.91065000    1.62359900
 S                  2.76212300   -0.53818800    0.11357600
 O                  2.34363200   -1.21649000    1.35642400
 O                  2.51483900   -1.19376200   -1.20025900
 C                  4.51008800   -0.15858000    0.25454600
 H                  4.65295200    0.46221800    1.13748700
 H                  5.00601300   -1.12598700    0.37430600
 H                  4.83039800    0.34111400   -0.66269500

@/home/malgo/Basis_sets/n07d_pbe0.gbs

