%chk=MTN_PBE0_0.27.chk
%mem=60GB
%nprocshared=12
#p gen 6d pbe1pbe

start preoptimized

0 2
 O                 -3.66268200    0.16464900    1.05620100
 N                 -2.64483100    0.04546900    0.30842100
 C                 -2.17123300   -1.26782900   -0.17233200
 C                 -0.86028300   -0.86589200   -0.77833900
 C                 -0.59540400    0.43857400   -0.64778800
 C                  0.61014500    1.12037600   -1.19398800
 S                  1.94756700    1.45156100    0.03328500
 C                 -1.70250600    1.16543500    0.08954100
 C                 -1.28633600    1.74431000    1.44361100
 C                 -2.38309900    2.24005400   -0.76591400
 C                 -3.14890100   -1.82954400   -1.20818000
 C                 -2.02344200   -2.22706400    1.01343100
 H                 -0.20453300   -1.58047400   -1.27011300
 H                  1.06678900    0.53424900   -1.99294200
 H                  0.38334800    2.11899500   -1.58336800
 H                 -0.75371500    1.00084000    2.04161900
 H                 -0.63518300    2.61506500    1.31156100
 H                 -2.18672800    2.05429100    1.98242200
 H                 -3.29619200    2.57593500   -0.26084600
 H                 -1.72918500    3.10903000   -0.90126900
 H                 -2.65489800    1.84636800   -1.74998600
 H                 -3.24308500   -1.15365800   -2.06676400
 H                 -2.80118400   -2.80633300   -1.56867600
 H                 -4.13586900   -1.95494800   -0.75153800
 H                 -2.99415100   -2.33671400    1.50857000
 H                 -1.68697700   -3.21011300    0.66456800
 H                 -1.29650900   -1.84975000    1.73669900
 S                  2.75342300   -0.52948800    0.10487600
 O                  2.32623200   -1.20779000    1.34772400
 O                  2.49743900   -1.16766200   -1.20895900
 C                  4.51008800   -0.18468000    0.23714600
 H                  4.67035200    0.42741800    1.12878700
 H                  4.98861300   -1.16078700    0.34820600
 H                  4.83039800    0.32371400   -0.67139500

@/home/malgo/Basis_sets/n07d_pbe0.gbs

