%chk=MTN_PBE0_0.24.chk
%mem=60GB
%nprocshared=12
#p gen 6d pbe1pbe

start preoptimized

0 2
 O                 -3.66838200    0.16704900    1.04570100
 N                 -2.64273100    0.04486900    0.31262100
 C                 -2.17063300   -1.26782900   -0.17143200
 C                 -0.86148300   -0.86499200   -0.78073900
 C                 -0.59600400    0.43917400   -0.64838800
 C                  0.60984500    1.12067600   -1.19428800
 S                  1.94726700    1.45096100    0.03328500
 C                 -1.70190600    1.16543500    0.09104100
 C                 -1.28333600    1.74551000    1.44391100
 C                 -2.38549900    2.23885400   -0.76321400
 C                 -3.15250100   -1.82834400   -1.20368000
 C                 -2.01744200   -2.22886400    1.01193100
 H                 -0.20663300   -1.57927400   -1.27401300
 H                  1.06648900    0.53454900   -1.99354200
 H                  0.38364800    2.11959500   -1.58336800
 H                 -0.74861500    1.00294000    2.04131900
 H                 -0.63338300    2.61686500    1.31036100
 H                 -2.18282800    2.05519100    1.98452200
 H                 -3.29739200    2.57413500   -0.25604600
 H                 -1.73248500    3.10813000   -0.90066900
 H                 -2.65939800    1.84426800   -1.74638600
 H                 -3.25028500   -1.15155800   -2.06076400
 H                 -2.80658400   -2.80453300   -1.56657600
 H                 -4.13736900   -1.95404800   -0.74283800
 H                 -2.98575100   -2.34061400    1.51097000
 H                 -1.68157700   -3.21101300    0.66036800
 H                 -1.28780900   -1.85185000    1.73279900
 S                  2.75372300   -0.52978800    0.10517600
 O                  2.32683200   -1.20809000    1.34802400
 O                  2.49803900   -1.16856200   -1.20865900
 C                  4.51008800   -0.18378000    0.23774600
 H                  4.66975200    0.42861800    1.12908700
 H                  4.98921300   -1.15958700    0.34910600
 H                  4.83039800    0.32431400   -0.67109500

@/home/malgo/Basis_sets/n07d_pbe0.gbs

