%chk=MTN_PBE0_-0.27.chk
%mem=60GB
%nprocshared=12
#p gen 6d pbe1pbe

start preoptimized

0 2
 O                 -3.76528200    0.20784900    0.86720100
 N                 -2.60703100    0.03466900    0.38402100
 C                 -2.16043300   -1.26782900   -0.15613200
 C                 -0.88188300   -0.84969200   -0.82153900
 C                 -0.60620400    0.44937400   -0.65858800
 C                  0.60474500    1.12577600   -1.19938800
 S                  1.94216700    1.44076100    0.03328500
 C                 -1.69170600    1.16543500    0.11654100
 C                 -1.23233600    1.76591000    1.44901100
 C                 -2.42629900    2.21845400   -0.71731400
 C                 -3.21370100   -1.80794400   -1.12718000
 C                 -1.91544200   -2.25946400    0.98643100
 H                 -0.24233300   -1.55887400   -1.34031300
 H                  1.06138900    0.53964900   -2.00374200
 H                  0.38874800    2.12979500   -1.58336800
 H                 -0.66191500    1.03864000    2.03621900
 H                 -0.60278300    2.64746500    1.28996100
 H                 -2.11652800    2.07049100    2.02022200
 H                 -3.31779200    2.54353500   -0.17444600
 H                 -1.78858500    3.09283000   -0.89046900
 H                 -2.73589800    1.80856800   -1.68518600
 H                 -3.37268500   -1.11585800   -1.95876400
 H                 -2.89838400   -2.77393300   -1.53087600
 H                 -4.16286900   -1.93874800   -0.59493800
 H                 -2.84295100   -2.40691400    1.55177000
 H                 -1.58977700   -3.22631300    0.58896800
 H                 -1.13990900   -1.88755000    1.66649900
 S                  2.75882300   -0.53488800    0.11027600
 O                  2.33703200   -1.21319000    1.35312400
 O                  2.50823900   -1.18386200   -1.20355900
 C                  4.51008800   -0.16848000    0.24794600
 H                  4.65955200    0.44901800    1.13418700
 H                  4.99941300   -1.13918700    0.36440600
 H                  4.83039800    0.33451400   -0.66599500

@/home/malgo/Basis_sets/n07d_pbe0.gbs

