%chk=MTN_PBE0_-0.25.chk
%mem=60GB
%nprocshared=12
#p gen 6d pbe1pbe

start preoptimized

0 2
 O                 -3.76148200    0.20624900    0.87420100
 N                 -2.60843100    0.03506900    0.38122100
 C                 -2.16083300   -1.26782900   -0.15673200
 C                 -0.88108300   -0.85029200   -0.81993900
 C                 -0.60580400    0.44897400   -0.65818800
 C                  0.60494500    1.12557600   -1.19918800
 S                  1.94236700    1.44116100    0.03328500
 C                 -1.69210600    1.16543500    0.11554100
 C                 -1.23433600    1.76511000    1.44881100
 C                 -2.42469900    2.21925400   -0.71911400
 C                 -3.21130100   -1.80874400   -1.13018000
 C                 -1.91944200   -2.25826400    0.98743100
 H                 -0.24093300   -1.55967400   -1.33771300
 H                  1.06158900    0.53944900   -2.00334200
 H                  0.38854800    2.12939500   -1.58336800
 H                 -0.66531500    1.03724000    2.03641900
 H                 -0.60398300    2.64626500    1.29076100
 H                 -2.11912800    2.06989100    2.01882200
 H                 -3.31699200    2.54473500   -0.17764600
 H                 -1.78638500    3.09343000   -0.89086900
 H                 -2.73289800    1.80996800   -1.68758600
 H                 -3.36788500   -1.11725800   -1.96276400
 H                 -2.89478400   -2.77513300   -1.53227600
 H                 -4.16186900   -1.93934800   -0.60073800
 H                 -2.84855100   -2.40431400    1.55017000
 H                 -1.59337700   -3.22571300    0.59176800
 H                 -1.14570900   -1.88615000    1.66909900
 S                  2.75862300   -0.53468800    0.11007600
 O                  2.33663200   -1.21299000    1.35292400
 O                  2.50783900   -1.18326200   -1.20375900
 C                  4.51008800   -0.16908000    0.24754600
 H                  4.65995200    0.44821800    1.13398700
 H                  4.99901300   -1.13998700    0.36380600
 H                  4.83039800    0.33411400   -0.66619500

@/home/malgo/Basis_sets/n07d_pbe0.gbs

