%chk=MTN_PBE0_0.26.chk
%mem=60GB
%nprocshared=12
#p gen 6d pbe1pbe

start preoptimized

0 2
 O                 -3.66458200    0.16544900    1.05270100
 N                 -2.64413100    0.04526900    0.30982100
 C                 -2.17103300   -1.26782900   -0.17203200
 C                 -0.86068300   -0.86559200   -0.77913900
 C                 -0.59560400    0.43877400   -0.64798800
 C                  0.61004500    1.12047600   -1.19408800
 S                  1.94746700    1.45136100    0.03328500
 C                 -1.70230600    1.16543500    0.09004100
 C                 -1.28533600    1.74471000    1.44371100
 C                 -2.38389900    2.23965400   -0.76501400
 C                 -3.15010100   -1.82914400   -1.20668000
 C                 -2.02144200   -2.22766400    1.01293100
 H                 -0.20523300   -1.58007400   -1.27141300
 H                  1.06668900    0.53434900   -1.99314200
 H                  0.38344800    2.11919500   -1.58336800
 H                 -0.75201500    1.00154000    2.04151900
 H                 -0.63458300    2.61566500    1.31116100
 H                 -2.18542800    2.05459100    1.98312200
 H                 -3.29659200    2.57533500   -0.25924600
 H                 -1.73028500    3.10873000   -0.90106900
 H                 -2.65639800    1.84566800   -1.74878600
 H                 -3.24548500   -1.15295800   -2.06476400
 H                 -2.80298400   -2.80573300   -1.56797600
 H                 -4.13636900   -1.95464800   -0.74863800
 H                 -2.99135100   -2.33801400    1.50937000
 H                 -1.68517700   -3.21041300    0.66316800
 H                 -1.29360900   -1.85045000    1.73539900
 S                  2.75352300   -0.52958800    0.10497600
 O                  2.32643200   -1.20789000    1.34782400
 O                  2.49763900   -1.16796200   -1.20885900
 C                  4.51008800   -0.18438000    0.23734600
 H                  4.67015200    0.42781800    1.12888700
 H                  4.98881300   -1.16038700    0.34850600
 H                  4.83039800    0.32391400   -0.67129500

@/home/malgo/Basis_sets/n07d_pbe0.gbs

