%chk=MTN_PBE0_0.40.chk
%mem=60GB
%nprocshared=12
#p gen 6d pbe1pbe

start preoptimized

0 2
 O                 -3.63798200    0.15424900    1.10170100
 N                 -2.65393100    0.04806900    0.29022100
 C                 -2.17383300   -1.26782900   -0.17623200
 C                 -0.85508300   -0.86979200   -0.76793900
 C                 -0.59280400    0.43597400   -0.64518800
 C                  0.61144500    1.11907600   -1.19268800
 S                  1.94886700    1.45416100    0.03328500
 C                 -1.70510600    1.16543500    0.08304100
 C                 -1.29933600    1.73911000    1.44231100
 C                 -2.37269900    2.24525400   -0.77761400
 C                 -3.13330100   -1.83474400   -1.22768000
 C                 -2.04944200   -2.21926400    1.01993100
 H                 -0.19543300   -1.58567400   -1.25321300
 H                  1.06808900    0.53294900   -1.99034200
 H                  0.38204800    2.11639500   -1.58336800
 H                 -0.77581500    0.99174000    2.04291900
 H                 -0.64298300    2.60726500    1.31676100
 H                 -2.20362800    2.05039100    1.97332200
 H                 -3.29099200    2.58373500   -0.28164600
 H                 -1.71488500    3.11293000   -0.90386900
 H                 -2.63539800    1.85546800   -1.76558600
 H                 -3.21188500   -1.16275800   -2.09276400
 H                 -2.77778400   -2.81413300   -1.57777600
 H                 -4.12936900   -1.95884800   -0.78923800
 H                 -3.03055100   -2.31981400    1.49817000
 H                 -1.71037700   -3.20621300    0.68276800
 H                 -1.33420900   -1.84065000    1.75359900
 S                  2.75212300   -0.52818800    0.10357600
 O                  2.32363200   -1.20649000    1.34642400
 O                  2.49483900   -1.16376200   -1.21025900
 C                  4.51008800   -0.18858000    0.23454600
 H                  4.67295200    0.42221800    1.12748700
 H                  4.98601300   -1.16598700    0.34430600
 H                  4.83039800    0.32111400   -0.67269500

@/home/malgo/Basis_sets/n07d_pbe0.gbs

