%chk=MTN_PBE0_0.80.chk
%mem=60GB
%nprocshared=12
#p gen 6d pbe1pbe

start preoptimized

0 2
 O                 -3.56198200    0.12224900    1.24170100
 N                 -2.68193100    0.05606900    0.23422100
 C                 -2.18183300   -1.26782900   -0.18823200
 C                 -0.83908300   -0.88179200   -0.73593900
 C                 -0.58480400    0.42797400   -0.63718800
 C                  0.61544500    1.11507600   -1.18868800
 S                  1.95286700    1.46216100    0.03328500
 C                 -1.71310600    1.16543500    0.06304100
 C                 -1.33933600    1.72311000    1.43831100
 C                 -2.34069900    2.26125400   -0.81361400
 C                 -3.08530100   -1.85074400   -1.28768000
 C                 -2.12944200   -2.19526400    1.03993100
 H                 -0.16743300   -1.60167400   -1.20121300
 H                  1.07208900    0.52894900   -1.98234200
 H                  0.37804800    2.10839500   -1.58336800
 H                 -0.84381500    0.96374000    2.04691900
 H                 -0.66698300    2.58326500    1.33276100
 H                 -2.25562800    2.03839100    1.94532200
 H                 -3.27499200    2.60773500   -0.34564600
 H                 -1.67088500    3.12493000   -0.91186900
 H                 -2.57539800    1.88346800   -1.81358600
 H                 -3.11588500   -1.19075800   -2.17276400
 H                 -2.70578400   -2.83813300   -1.60577600
 H                 -4.10936900   -1.97084800   -0.90523800
 H                 -3.14255100   -2.26781400    1.46617000
 H                 -1.78237700   -3.19421300    0.73876800
 H                 -1.45020900   -1.81265000    1.80559900
 S                  2.74812300   -0.52418800    0.09957600
 O                  2.31563200   -1.20249000    1.34242400
 O                  2.48683900   -1.15176200   -1.21425900
 C                  4.51008800   -0.20058000    0.22654600
 H                  4.68095200    0.40621800    1.12348700
 H                  4.97801300   -1.18198700    0.33230600
 H                  4.83039800    0.31311400   -0.67669500

@/home/malgo/Basis_sets/n07d_pbe0.gbs

