%chk=MTN_PBE0_0.20.chk
%mem=60GB
%nprocshared=12
#p gen 6d pbe1pbe

start preoptimized

0 2
 O                 -3.67598200    0.17024900    1.03170100
 N                 -2.63993100    0.04406900    0.31822100
 C                 -2.16983300   -1.26782900   -0.17023200
 C                 -0.86308300   -0.86379200   -0.78393900
 C                 -0.59680400    0.43997400   -0.64918800
 C                  0.60944500    1.12107600   -1.19468800
 S                  1.94686700    1.45016100    0.03328500
 C                 -1.70110600    1.16543500    0.09304100
 C                 -1.27933600    1.74711000    1.44431100
 C                 -2.38869900    2.23725400   -0.75961400
 C                 -3.15730100   -1.82674400   -1.19768000
 C                 -2.00944200   -2.23126400    1.00993100
 H                 -0.20943300   -1.57767400   -1.27921300
 H                  1.06608900    0.53494900   -1.99434200
 H                  0.38404800    2.12039500   -1.58336800
 H                 -0.74181500    1.00574000    2.04091900
 H                 -0.63098300    2.61926500    1.30876100
 H                 -2.17762800    2.05639100    1.98732200
 H                 -3.29899200    2.57173500   -0.24964600
 H                 -1.73688500    3.10693000   -0.89986900
 H                 -2.66539800    1.84146800   -1.74158600
 H                 -3.25988500   -1.14875800   -2.05276400
 H                 -2.81378400   -2.80213300   -1.56377600
 H                 -4.13936900   -1.95284800   -0.73123800
 H                 -2.97455100   -2.34581400    1.51417000
 H                 -1.67437700   -3.21221300    0.65476800
 H                 -1.27620900   -1.85465000    1.72759900
 S                  2.75412300   -0.53018800    0.10557600
 O                  2.32763200   -1.20849000    1.34842400
 O                  2.49883900   -1.16976200   -1.20825900
 C                  4.51008800   -0.18258000    0.23854600
 H                  4.66895200    0.43021800    1.12948700
 H                  4.99001300   -1.15798700    0.35030600
 H                  4.83039800    0.32511400   -0.67069500

@/home/malgo/Basis_sets/n07d_pbe0.gbs

