%chk=MTN_PBE0_-0.28.chk
%mem=60GB
%nprocshared=12
#p gen 6d pbe1pbe

start preoptimized

0 2
 O                 -3.76718200    0.20864900    0.86370100
 N                 -2.60633100    0.03446900    0.38542100
 C                 -2.16023300   -1.26782900   -0.15583200
 C                 -0.88228300   -0.84939200   -0.82233900
 C                 -0.60640400    0.44957400   -0.65878800
 C                  0.60464500    1.12587600   -1.19948800
 S                  1.94206700    1.44056100    0.03328500
 C                 -1.69150600    1.16543500    0.11704100
 C                 -1.23133600    1.76631000    1.44911100
 C                 -2.42709900    2.21805400   -0.71641400
 C                 -3.21490100   -1.80754400   -1.12568000
 C                 -1.91344200   -2.26006400    0.98593100
 H                 -0.24303300   -1.55847400   -1.34161300
 H                  1.06128900    0.53974900   -2.00394200
 H                  0.38884800    2.12999500   -1.58336800
 H                 -0.66021500    1.03934000    2.03611900
 H                 -0.60218300    2.64806500    1.28956100
 H                 -2.11522800    2.07079100    2.02092200
 H                 -3.31819200    2.54293500   -0.17284600
 H                 -1.78968500    3.09253000   -0.89026900
 H                 -2.73739800    1.80786800   -1.68398600
 H                 -3.37508500   -1.11515800   -1.95676400
 H                 -2.90018400   -2.77333300   -1.53017600
 H                 -4.16336900   -1.93844800   -0.59203800
 H                 -2.84015100   -2.40821400    1.55257000
 H                 -1.58797700   -3.22661300    0.58756800
 H                 -1.13700900   -1.88825000    1.66519900
 S                  2.75892300   -0.53498800    0.11037600
 O                  2.33723200   -1.21329000    1.35322400
 O                  2.50843900   -1.18416200   -1.20345900
 C                  4.51008800   -0.16818000    0.24814600
 H                  4.65935200    0.44941800    1.13428700
 H                  4.99961300   -1.13878700    0.36470600
 H                  4.83039800    0.33471400   -0.66589500

@/home/malgo/Basis_sets/n07d_pbe0.gbs

